************************************************************************
file with basedata            : me11_.bas
initial value random generator: 1558155403
************************************************************************
projects                      :  1
jobs (incl. supersource/sink ):  14
horizon                       :  93
RESOURCES
  - renewable                 :  2   R
  - nonrenewable              :  0   N
  - doubly constrained        :  0   D
************************************************************************
PROJECT INFORMATION:
pronr.  #jobs rel.date duedate tardcost  MPM-Time
    1     12      0       20        3       20
************************************************************************
PRECEDENCE RELATIONS:
jobnr.    #modes  #successors   successors
   1        1          3           2   3   4
   2        3          3           7   8  12
   3        3          3           8   9  10
   4        3          1           5
   5        3          3           6   8  10
   6        3          2           7   9
   7        3          1          11
   8        3          2          11  13
   9        3          3          11  12  13
  10        3          2          12  13
  11        3          1          14
  12        3          1          14
  13        3          1          14
  14        1          0        
************************************************************************
REQUESTS/DURATIONS:
jobnr. mode duration  R 1  R 2
------------------------------------------------------------------------
  1      1     0       0    0
  2      1     5       0    7
         2    10      10    0
         3    10       0    5
  3      1     6       7    0
         2     8       0    4
         3     9       0    3
  4      1     1       0    7
         2     3       0    6
         3     5       0    4
  5      1     4       0    3
         2     6       5    0
         3     8       4    0
  6      1     3       8    0
         2     5       0   10
         3     8       7    0
  7      1     3       0    9
         2     3       7    0
         3     6       5    0
  8      1     2       0    9
         2     5       5    0
         3     7       0    3
  9      1     6       7    0
         2     8       0    7
         3     9       0    6
 10      1     2       8    0
         2     4       7    0
         3     8       0    7
 11      1     3       0    3
         2     5       0    1
         3     7       6    0
 12      1     2       3    0
         2     5       0    6
         3     7       0    1
 13      1     6       0    6
         2     6       4    0
         3     9       0    5
 14      1     0       0    0
************************************************************************
RESOURCEAVAILABILITIES:
  R 1  R 2
   20   21
************************************************************************
